0 1
0 2
1 2
1 59
1 92
1 93
1 158
1 328
1 376
1 406
1 443
2 268
3 4
3 5
3 6
3 73
5 42
5 45
5 160
5 246
6 76
6 425
7 8
7 9
8 122
8 228
8 235
8 237
8 259
8 260
8 272
8 282
8 291
8 307
8 314
8 410
9 22
9 46
9 74
9 119
9 141
9 157
9 206
9 249
9 312
10 11
11 127
11 191
11 320
11 350
11 421
11 451
11 452
12 13
12 14
12 15
13 14
13 15
13 69
13 114
14 41
14 200
14 314
15 41
15 102
15 114
15 200
16 17
17 51
17 418
17 460
18 19
18 278
19 38
19 207
19 253
19 268
20 21
20 22
20 226
21 46
21 190
22 62
22 172
22 173
22 231
22 355
22 372
22 450
22 462
23 24
23 25
23 26
23 27
23 448
24 27
24 97
24 159
24 263
24 298
25 26
25 69
25 205
25 241
25 448
26 102
26 168
26 205
26 241
27 74
27 96
27 97
27 130
27 159
27 205
27 248
27 266
27 309
27 318
27 330
27 334
27 380
28 29
28 30
28 31
29 59
29 60
30 246
31 48
31 244
32 33
33 52
33 138
33 178
33 179
33 344
34 35
34 415
35 238
35 415
36 37
36 38
36 39
37 38
37 153
37 280
37 286
37 322
37 412
37 426
38 71
38 137
38 304
38 315
39 59
39 215
39 257
39 339
39 351
39 368
39 446
40 41
41 72
41 76
41 100
41 105
41 114
41 200
41 228
41 358
41 362
41 363
41 380
41 391
41 399
41 414
41 452
41 464
42 43
42 44
42 45
42 60
42 280
42 412
43 236
43 280
43 454
44 45
44 341
44 414
44 431
44 453
44 454
45 165
45 453
46 51
46 140
46 141
47 48
47 49
48 53
48 68
48 182
48 244
48 340
48 365
48 433
49 292
49 460
50 51
50 168
50 262
50 342
50 461
51 141
51 262
51 342
52 53
53 151
53 336
54 55
54 56
54 57
54 58
55 67
56 240
56 321
57 317
57 427
58 317
58 387
58 427
58 460
59 91
59 158
59 382
60 400
61 62
62 188
62 189
63 64
63 65
65 66
65 119
65 272
65 284
65 298
66 67
67 122
67 203
67 260
67 262
67 343
67 389
67 390
67 425
69 102
69 109
69 121
69 149
69 201
69 218
69 241
69 271
69 301
69 319
69 332
69 403
69 409
69 410
69 411
69 443
70 71
72 73
72 74
72 75
72 76
72 115
72 309
72 373
72 383
73 75
73 209
73 261
74 82
74 119
74 120
74 130
74 375
74 398
75 335
75 343
75 445
76 100
76 122
76 204
76 362
76 363
76 399
76 425
76 455
77 78
77 79
77 214
77 230
78 79
78 146
78 236
78 247
78 446
80 81
80 82
80 258
80 355
80 379
81 167
81 168
81 173
81 232
81 233
81 293
81 372
81 379
81 404
81 405
81 432
81 462
82 189
82 201
82 202
82 215
82 258
82 278
82 309
82 356
82 398
82 411
82 422
82 442
82 443
83 84
83 266
83 334
84 224
84 225
85 86
85 112
85 436
86 87
86 112
86 113
86 316
87 88
87 336
88 220
88 222
88 336
89 90
90 91
90 92
90 93
91 158
91 159
91 252
92 248
92 311
92 443
94 95
95 231
95 232
95 330
95 331
95 450
96 97
97 159
97 263
97 449
98 99
98 392
98 456
99 456
100 399
101 102
102 107
102 108
102 121
102 129
102 131
102 161
102 187
102 218
102 300
102 301
102 308
102 318
102 319
102 345
102 346
102 353
102 362
102 411
102 420
102 443
103 104
103 105
103 106
103 398
104 120
104 253
104 254
104 315
105 106
105 320
106 354
107 108
107 109
108 119
109 130
109 137
109 359
110 111
110 112
112 377
112 378
112 385
113 114
113 115
113 116
113 373
114 200
115 116
115 239
115 254
115 303
116 303
116 373
117 118
117 291
117 305
117 307
118 260
118 277
118 291
118 305
118 307
118 315
118 339
119 270
119 311
119 354
119 377
119 408
119 461
120 121
120 122
120 350
121 332
122 130
122 140
122 203
122 260
122 313
122 334
122 389
122 390
122 407
122 425
122 428
123 124
123 229
124 145
124 149
125 126
125 127
125 128
128 178
128 189
128 198
128 226
128 227
129 130
129 131
130 186
130 244
130 309
132 133
132 134
132 223
133 134
134 217
135 136
135 137
135 138
136 138
136 361
137 158
137 249
139 140
139 141
140 193
141 157
141 261
142 143
143 144
143 145
143 212
143 213
143 279
143 324
143 337
143 338
144 145
144 146
144 338
145 298
146 238
146 280
147 148
147 149
148 288
150 151
150 152
151 166
151 352
152 254
152 357
154 155
154 156
154 290
155 207
155 235
155 237
155 256
155 266
155 356
155 423
159 240
159 335
159 449
160 161
160 193
160 234
162 163
162 164
163 441
164 198
164 341
164 430
167 168
167 199
167 369
167 461
168 438
168 461
169 170
169 171
170 222
170 294
173 174
173 175
173 264
173 265
174 175
175 264
175 265
176 177
177 243
177 360
177 407
178 179
178 417
179 194
180 181
181 188
182 183
183 199
183 281
183 310
184 185
185 202
185 243
185 459
186 187
186 445
189 198
190 191
191 225
191 333
191 350
191 393
192 193
192 372
193 234
194 217
195 196
195 237
196 304
196 351
197 198
197 199
198 226
198 367
198 371
198 372
198 424
199 323
200 201
201 203
203 204
208 209
208 210
208 211
208 242
209 210
209 211
209 242
210 211
211 270
211 296
211 297
212 213
212 374
213 324
213 344
213 392
214 215
215 230
215 258
215 402
215 403
216 217
217 302
217 322
217 357
219 220
219 221
219 222
219 348
219 439
220 221
220 222
221 222
221 323
221 363
221 384
221 396
222 370
223 397
224 239
224 254
224 438
225 393
227 228
227 231
227 346
227 450
228 263
228 367
228 428
231 232
231 331
231 450
232 233
232 450
233 395
233 404
235 236
235 237
235 238
235 269
235 428
236 247
236 402
237 428
238 446
239 240
240 245
240 277
240 333
240 339
240 366
241 410
244 245
244 246
244 287
245 246
245 287
246 267
246 270
248 266
249 250
249 273
250 286
250 325
250 366
250 368
251 252
252 345
253 315
253 406
255 256
255 257
255 273
255 274
255 324
255 434
256 356
259 260
260 271
260 284
260 334
261 394
263 290
263 458
264 265
266 318
266 319
267 268
267 269
267 270
268 270
268 275
268 277
268 402
269 397
271 272
272 274
272 282
272 284
272 455
273 274
273 275
275 289
276 277
277 339
277 351
277 403
279 280
280 304
280 412
282 283
282 284
282 305
283 358
283 407
285 286
286 325
287 299
290 291
290 292
291 305
291 306
291 308
292 420
292 460
294 295
296 297
300 301
301 319
304 412
304 426
305 306
305 421
305 451
306 307
308 401
309 386
309 426
312 313
312 314
313 342
314 319
316 317
320 361
320 364
320 452
321 356
321 398
322 323
324 392
324 418
326 327
327 365
328 329
330 331
332 408
332 409
332 463
334 335
335 444
336 370
337 338
338 433
341 342
343 389
343 390
343 444
345 365
346 347
348 349
353 354
356 398
359 375
361 362
361 363
369 370
371 372
377 378
377 386
377 429
378 385
380 381
384 388
385 386
390 430
392 395
393 422
404 405
408 409
409 463
412 413
414 464
415 416
415 457
416 457
418 419
423 424
424 435
434 459
436 437
439 440
439 441
444 445
445 447
453 454
