0 1
0 2
0 196
0 297
1 296
1 309
1 341
2 196
2 309
3 4
3 5
3 173
4 5
4 42
4 58
4 121
4 122
5 11
5 121
5 254
5 276
6 7
7 70
8 9
8 10
9 182
9 198
10 356
11 403
12 13
12 14
14 18
14 29
15 16
15 17
16 39
16 108
16 261
17 66
18 19
18 20
18 26
18 30
18 86
18 87
18 254
18 322
18 377
18 402
19 30
20 27
20 59
20 76
20 253
20 273
21 22
21 23
22 23
22 173
24 25
24 26
25 99
25 154
25 223
27 28
28 72
28 77
28 111
28 142
29 30
29 31
29 418
30 418
32 33
32 34
33 35
33 184
34 35
34 36
35 36
35 80
35 81
35 408
36 43
37 38
37 366
38 62
38 64
38 102
38 155
38 158
38 215
38 283
38 295
38 320
38 366
38 368
38 376
40 41
40 42
41 61
41 98
41 99
41 131
41 156
42 107
42 122
42 222
42 257
42 325
42 334
42 410
43 44
43 45
43 46
43 140
43 198
43 199
43 242
43 270
43 277
43 328
43 329
45 148
46 213
47 48
47 50
47 72
47 96
47 109
47 130
47 420
48 50
49 50
51 52
52 180
52 256
53 54
54 78
54 293
54 360
55 56
56 235
57 58
57 59
58 62
59 143
59 245
59 269
60 61
60 82
60 203
60 411
62 63
62 64
63 80
63 266
63 298
63 350
64 130
64 281
64 321
65 66
65 119
66 67
66 96
66 108
66 120
66 244
66 313
66 332
66 385
68 69
69 298
70 414
70 415
71 72
71 75
72 75
73 74
73 75
74 86
74 197
74 415
76 77
76 78
77 234
77 339
77 399
77 410
79 80
79 81
79 82
80 81
80 197
80 294
81 82
81 184
81 355
82 148
82 271
82 272
82 353
82 359
82 365
82 401
83 84
83 85
84 85
84 127
84 215
84 378
84 409
84 417
85 276
85 363
85 378
85 409
86 87
87 270
87 334
87 376
87 377
87 402
88 89
88 90
88 91
90 139
90 162
90 163
90 235
90 311
90 318
90 391
90 393
92 93
93 309
94 95
94 227
95 149
95 151
95 179
96 97
98 99
98 202
98 302
99 357
100 101
100 102
100 103
100 104
101 138
102 158
104 148
104 284
105 106
105 107
107 154
107 222
107 228
107 357
108 300
108 332
108 333
109 110
109 111
110 129
110 130
110 131
111 190
112 113
112 114
112 115
113 115
113 116
113 117
113 118
114 115
114 128
115 172
116 117
116 118
116 148
116 336
117 118
117 282
117 336
119 120
120 385
122 197
122 249
123 124
123 125
123 126
124 125
124 197
125 126
125 134
126 132
126 134
129 131
130 302
131 248
131 253
131 340
131 369
131 381
131 421
132 133
133 159
133 274
133 292
133 409
135 136
135 137
135 350
135 351
136 349
136 351
136 354
137 213
137 264
137 361
138 342
138 343
139 242
140 141
141 229
142 143
142 144
143 144
143 158
143 187
143 212
143 419
144 217
144 419
145 146
145 147
145 154
146 147
146 161
148 282
148 379
149 150
149 151
150 151
150 232
152 153
152 395
153 310
156 157
156 231
156 273
157 250
158 383
159 160
161 193
162 163
163 224
164 165
164 166
164 167
164 168
164 348
165 371
166 167
166 194
166 195
167 195
168 210
168 303
169 170
169 171
171 245
171 246
173 344
173 367
173 412
174 175
175 193
176 177
176 178
177 192
179 180
179 181
182 183
183 226
184 185
184 398
185 214
186 187
186 188
186 189
186 400
187 195
187 230
187 324
187 352
187 400
188 189
189 211
189 243
190 191
192 264
192 265
194 258
195 220
195 230
195 352
197 334
198 199
198 200
199 200
200 373
201 202
202 204
202 218
202 233
202 278
203 204
204 233
205 206
205 207
205 208
205 396
206 208
208 289
208 351
209 210
209 285
211 243
212 273
213 361
214 215
214 251
215 216
215 382
217 218
217 221
217 281
217 413
219 220
219 221
220 230
220 323
222 223
222 257
222 339
222 410
223 236
223 325
223 357
223 410
225 226
226 330
228 229
229 255
231 345
234 235
234 287
234 321
236 237
237 325
238 239
238 359
240 241
240 338
241 337
241 384
242 277
242 355
245 246
247 248
247 249
248 253
249 250
251 252
251 369
251 385
252 253
253 278
253 327
255 384
256 257
258 294
259 260
259 388
260 361
262 263
262 266
262 289
263 266
264 335
265 335
267 268
268 311
269 270
270 304
270 372
271 272
275 276
276 363
278 310
278 421
279 280
279 373
280 314
280 328
281 282
285 286
286 321
286 349
286 354
288 289
289 331
289 358
289 374
289 416
290 291
291 319
292 326
294 295
295 327
296 297
299 300
299 301
303 304
304 394
305 306
306 307
307 308
307 335
312 313
315 316
315 317
316 317
317 404
318 319
320 321
323 324
328 329
337 397
338 387
340 341
341 386
342 343
343 347
343 362
345 346
345 401
346 375
346 378
353 401
354 370
356 390
357 364
361 407
361 416
368 369
372 386
376 377
379 380
381 421
388 389
391 392
398 408
404 405
404 406
405 406
405 407
