0 1
0 2
0 102
1 2
1 102
1 112
1 127
1 136
1 146
1 316
2 166
2 357
2 394
3 4
3 5
4 28
4 58
4 136
4 146
4 197
4 205
4 213
4 242
4 311
4 434
5 58
5 80
5 103
5 137
5 242
5 248
5 311
5 314
5 434
6 7
6 65
7 65
8 9
8 171
8 420
9 104
9 176
9 216
9 278
9 284
9 423
10 11
10 12
10 13
10 262
10 460
11 13
11 97
11 200
11 201
12 13
12 47
12 123
12 188
12 189
12 223
12 409
12 456
14 15
14 16
14 55
14 159
16 183
16 300
17 18
17 19
17 51
17 199
17 384
18 51
18 107
18 124
18 133
18 199
18 308
19 68
19 196
19 199
19 201
19 277
19 332
19 367
19 368
19 392
19 417
19 418
19 426
20 21
21 302
21 372
22 23
22 24
23 48
23 351
24 47
24 49
24 105
25 26
26 36
26 60
26 298
26 299
26 451
27 28
27 462
28 29
28 130
30 31
30 32
30 33
31 143
31 144
32 156
33 202
33 369
34 35
34 36
34 181
35 175
35 180
35 181
35 328
36 181
36 182
36 209
36 421
37 38
37 39
38 97
38 98
39 218
40 41
40 42
40 43
40 44
40 45
41 43
41 44
41 95
41 235
41 236
41 246
42 45
42 46
42 106
42 309
43 44
43 185
43 235
43 251
43 283
43 289
44 46
44 95
44 219
44 236
44 446
45 46
46 218
46 219
46 236
47 48
47 49
47 50
47 54
47 57
47 157
47 304
47 324
47 334
47 340
47 377
47 407
48 269
48 282
48 301
49 50
49 52
50 85
50 134
50 135
50 374
50 377
50 380
52 187
52 229
53 54
54 100
55 56
56 154
56 155
57 58
57 59
57 145
58 213
58 242
58 248
59 115
59 411
60 61
60 62
61 62
62 93
62 99
62 184
62 229
62 231
62 233
62 249
62 262
62 322
62 423
62 425
63 64
64 166
64 387
65 117
65 118
65 216
65 456
66 67
66 68
66 395
67 151
67 386
67 395
68 151
68 154
69 70
69 71
69 151
70 72
70 73
70 74
70 75
70 179
71 108
71 345
72 73
72 74
72 179
72 239
72 386
73 74
73 75
73 179
73 386
74 75
74 179
75 178
76 77
77 82
77 381
78 79
79 207
79 310
81 82
81 185
81 444
82 168
82 292
82 293
82 407
82 408
83 84
84 260
85 86
86 277
86 359
87 88
87 89
88 245
90 91
90 187
90 412
90 415
91 191
92 93
92 94
92 95
92 96
93 95
93 96
93 135
93 184
93 239
93 249
93 380
94 96
94 172
94 209
95 240
95 427
96 264
97 98
97 121
97 200
97 218
97 416
98 173
98 218
98 262
100 101
101 158
102 103
102 167
103 259
104 105
104 106
104 285
105 197
105 198
105 210
106 147
106 283
106 285
106 289
107 108
107 109
108 345
110 111
110 112
110 258
113 114
113 115
114 357
114 384
115 411
116 117
116 118
116 211
116 348
117 118
117 119
117 121
117 307
118 119
118 238
118 398
119 120
120 165
120 256
120 359
120 360
120 363
120 367
120 461
121 211
121 368
122 123
123 189
124 125
124 126
125 126
125 274
125 343
125 442
126 301
126 442
127 128
127 129
128 231
128 232
128 427
128 441
129 204
130 131
132 133
133 199
133 202
133 324
133 424
134 277
134 331
134 346
135 340
135 380
135 461
136 205
136 222
137 138
137 139
137 377
137 448
138 139
138 403
138 404
138 420
139 313
139 377
140 141
140 142
140 396
140 397
142 290
142 291
142 369
142 386
142 396
143 243
143 385
144 411
145 374
147 148
148 429
149 150
150 159
150 161
150 162
150 303
150 454
151 171
152 153
153 349
154 155
154 156
155 156
155 244
155 245
156 244
156 287
158 323
158 458
159 160
159 163
159 188
159 291
159 413
159 414
160 164
160 405
160 413
161 162
161 163
161 447
162 163
162 176
162 193
163 381
164 165
164 166
164 188
164 195
164 336
164 405
164 413
166 173
166 270
166 394
166 402
169 170
169 171
169 459
170 219
170 220
171 304
172 175
173 174
174 332
176 448
177 178
177 306
178 268
178 273
178 278
179 189
180 181
180 182
185 324
186 187
188 189
188 190
189 190
189 191
189 400
189 401
190 191
192 193
192 194
192 202
193 194
194 448
195 196
196 332
197 198
197 315
198 315
199 424
200 330
200 333
201 214
201 215
201 217
201 257
201 277
201 417
203 204
203 247
203 309
205 206
206 221
206 222
207 208
208 310
210 282
210 353
211 212
212 331
212 348
213 248
214 215
214 217
214 430
215 363
217 330
217 419
217 428
218 219
218 246
219 246
219 267
220 237
220 267
220 285
220 310
221 222
221 354
223 224
223 225
224 226
224 227
224 228
225 298
225 427
227 228
227 398
227 399
227 416
227 417
228 238
228 441
229 231
230 231
230 232
231 233
231 234
231 328
231 423
232 441
233 234
233 423
234 423
236 373
236 462
237 238
237 310
238 376
240 241
242 311
243 450
246 272
246 402
246 406
249 250
249 251
249 252
249 253
249 460
250 252
251 278
251 382
252 253
254 255
255 391
255 393
256 257
256 368
257 430
257 461
259 260
260 362
260 407
260 426
260 453
261 262
261 338
262 269
262 338
263 264
264 373
265 266
266 270
266 297
267 268
267 269
267 286
268 273
268 369
270 402
271 272
272 296
272 409
274 364
275 276
275 277
277 337
277 346
277 347
277 349
277 350
277 417
277 426
277 432
277 436
277 437
277 438
278 279
278 370
280 281
281 282
285 286
286 288
286 289
287 319
287 387
288 289
289 454
290 291
292 293
294 295
294 345
295 355
295 385
296 323
296 458
297 452
298 299
298 300
300 301
300 302
300 303
300 388
301 302
301 341
301 344
301 422
302 303
302 316
302 319
302 422
303 358
304 305
304 383
305 333
305 383
305 384
306 307
312 313
313 314
313 315
313 434
316 317
317 391
317 419
318 319
319 387
319 400
320 321
320 322
321 323
322 400
323 419
325 326
325 327
326 439
327 331
327 431
327 440
328 329
331 346
331 429
331 431
331 432
335 336
335 337
337 346
337 350
338 339
338 449
339 404
341 342
341 343
342 343
342 356
342 378
342 379
343 378
343 379
346 347
346 432
347 348
347 349
349 361
349 417
352 353
352 354
355 420
357 412
358 438
359 360
365 366
366 447
369 395
369 396
371 372
374 375
374 381
375 381
375 437
376 454
377 385
378 379
380 381
380 463
383 384
383 412
384 412
384 436
389 390
389 391
389 392
390 391
390 393
391 393
392 417
393 421
396 408
397 415
398 399
403 404
407 408
409 410
410 449
413 414
416 417
417 451
419 440
424 433
427 441
432 436
434 435
435 443
440 457
444 445
454 455
457 461
463 464
