0 1
1 366
1 376
2 3
2 4
3 4
3 84
3 91
3 135
4 389
4 436
5 6
5 7
5 8
5 9
5 234
6 7
6 8
6 9
7 8
7 107
7 134
7 142
7 178
7 179
7 200
7 207
9 23
9 134
9 157
10 11
11 36
11 103
12 13
13 15
13 324
14 15
14 16
16 52
16 94
16 100
17 18
18 56
18 68
18 89
19 20
19 74
20 37
20 122
20 137
20 224
20 256
21 22
21 23
21 301
22 24
22 201
23 99
23 100
23 101
24 352
25 26
25 27
25 28
25 95
25 199
25 217
25 258
25 314
25 413
26 27
26 158
26 192
26 341
27 29
27 334
27 392
28 31
28 32
28 126
29 258
30 31
30 32
30 33
30 34
30 35
31 33
32 35
32 73
32 100
32 101
32 295
32 363
32 364
32 390
34 93
34 126
35 104
35 167
35 363
35 390
35 424
36 37
36 38
37 354
38 62
38 116
38 171
39 40
40 269
40 274
41 42
41 43
42 43
43 148
43 239
43 264
43 382
44 45
44 46
44 47
45 101
45 137
46 47
47 145
48 49
48 311
48 432
49 244
49 288
49 289
50 51
50 52
51 54
51 376
52 279
53 54
53 55
53 56
53 203
53 255
54 79
55 56
56 302
56 326
57 58
57 179
57 281
58 73
59 60
59 61
59 62
59 220
59 245
59 274
59 310
59 424
59 432
60 61
60 74
60 75
60 102
60 154
60 155
60 276
60 277
61 115
61 277
61 280
61 297
62 171
62 224
63 64
63 65
63 66
63 297
64 293
65 66
65 70
65 291
65 296
65 297
65 361
65 370
65 395
66 241
66 407
67 68
67 69
67 70
67 71
68 89
68 90
68 138
68 261
69 193
70 71
70 370
71 370
72 73
73 139
73 140
73 156
73 290
73 381
73 394
74 75
75 276
76 77
76 320
77 129
77 130
77 131
77 181
77 196
77 304
77 357
78 79
78 80
79 80
79 211
79 262
79 263
79 287
80 211
80 272
80 326
81 82
81 103
82 213
82 335
83 84
83 328
84 135
85 86
85 87
85 88
86 425
87 88
87 168
87 322
88 168
89 90
89 261
90 158
90 343
90 420
91 361
92 93
92 94
92 95
92 154
93 141
93 142
94 277
94 279
95 179
95 212
95 277
96 97
96 98
96 375
97 130
97 141
97 213
98 110
98 200
98 286
98 347
98 400
98 428
100 101
100 224
100 248
100 254
100 321
101 196
101 209
102 103
102 104
102 280
103 137
104 241
104 364
105 106
105 107
107 134
107 165
107 174
107 182
107 270
107 320
107 321
107 399
107 401
107 404
108 109
109 117
109 120
111 112
112 160
112 186
112 241
113 114
113 115
113 336
114 124
114 263
114 338
114 386
115 139
115 241
115 323
115 354
116 337
117 118
117 119
117 120
118 209
118 237
118 249
118 299
118 300
119 129
119 236
119 330
120 241
120 317
121 122
121 123
121 124
122 257
123 126
124 396
124 426
125 126
125 316
126 127
126 142
126 163
126 189
126 190
126 222
126 316
126 353
126 422
127 128
128 161
129 130
129 131
129 367
130 131
130 214
130 242
130 305
132 133
132 134
134 174
134 207
136 137
136 138
137 155
137 172
137 258
137 289
138 309
138 343
139 354
140 233
140 414
141 151
141 153
142 222
142 316
143 144
143 382
144 411
145 146
146 265
147 148
147 149
147 150
147 169
148 149
148 215
148 216
149 150
149 225
150 225
150 335
151 152
151 153
152 153
152 422
153 211
153 326
157 158
158 187
158 420
159 160
160 330
160 374
161 162
161 163
163 181
163 304
164 165
164 166
168 397
169 170
170 270
171 403
172 173
175 176
176 177
176 231
176 319
176 378
177 378
178 179
178 207
179 207
180 181
180 182
180 183
180 191
180 303
180 304
180 315
180 400
180 401
181 218
181 270
181 303
181 304
181 412
181 422
183 399
184 185
184 186
185 186
185 427
187 188
192 193
192 194
193 291
194 368
194 369
194 379
194 434
195 196
197 198
197 227
198 227
198 391
199 200
199 314
202 203
202 204
203 204
203 205
203 206
204 205
206 423
208 209
208 210
209 380
210 329
213 214
213 344
213 358
214 347
215 244
216 422
219 220
219 221
220 374
221 340
223 224
224 239
226 227
226 228
228 232
228 234
228 302
229 230
229 252
229 253
230 231
230 309
230 417
232 233
233 414
235 236
235 318
236 318
236 418
237 238
238 248
238 249
238 273
239 345
239 382
240 241
241 291
241 298
241 349
241 407
242 243
243 271
243 330
243 396
244 417
244 437
245 246
245 247
246 248
247 248
247 267
247 433
248 249
250 251
251 253
251 254
251 255
252 400
253 313
254 312
255 402
256 257
257 301
257 340
257 346
257 359
257 382
257 385
259 260
259 289
259 311
259 421
261 306
261 334
261 431
262 263
262 385
263 348
265 410
266 267
266 268
267 433
269 403
270 303
271 283
272 273
272 283
274 275
277 280
277 418
278 279
278 418
281 282
282 435
284 285
284 375
285 391
285 406
285 421
290 291
290 356
291 305
291 319
291 367
292 293
292 294
293 386
296 297
298 419
299 300
300 360
303 304
305 306
307 308
308 351
308 362
309 360
310 311
311 398
311 409
312 313
315 316
316 353
320 321
321 373
325 326
327 328
327 341
329 365
331 332
331 333
331 417
332 388
332 416
333 383
334 335
337 338
337 339
337 371
342 343
342 344
344 415
344 433
344 437
346 347
346 348
347 403
348 359
349 350
350 372
351 386
352 408
354 355
357 358
363 364
366 367
368 369
371 372
372 377
379 383
384 385
387 388
388 409
393 394
399 400
399 401
405 406
407 424
415 416
415 429
416 425
429 430
